17 965
525 7 504 7 362 7 209 9 25 11 818 15 619 21
525 7 504 7 362 7 209 9 25 11 818 15 619 21
525 7 504 7 362 7 209 9 25 11 818 15 619 21
520 7 441 7 296 7 152 12
520 7 441 7 296 7 151 12
525 7 479 7 355 7 106 9 927 13
525 7 479 7 355 7 106 9 927 13
525 7 479 7 355 7 106 9 927 13
525 7 479 7 358 7 163 9 10 11 816 15 659 22
520 7 440 7 284 7 103 9 923 13
525 7 479 7 355 7 106 9 927 13
525 7 479 7 355 7 106 9 931 13
525 7 479 7 355 7 106 9 931 13
525 7 484 7 368 7 123 9 857 11 631 18
525 7 482 7 394 7 212 9 29 11 822 15 625 21
525 7 482 7 394 7 212 9 29 11 822 15 625 21
525 7 451 7 273 7 204 9 768 11 586 18
